
--- Job sourceFile.gms Start 08/15/24 19:12:20 47.4.0 838fd78c WEX-WEI x86 64bit/MS Windows
--- Applying:
    C:\Program Files (x86)\GAMS\47\gmsprmNT.txt
--- GAMS Parameters defined
    Input C:\projects\itStud9Lp2024\gamsWorkSpace\sourceFile.gms
    PageSize 0
    ScrDir C:\projects\itStud9Lp2024\gamsWorkSpace\225d\
    SysDir "C:\Program Files (x86)\GAMS\47\"
    LogOption 3
    ErrMsg 1
    ErrorLog 99
    IDE 1
    LstTitleLeftAligned 1
Licensee: Course License                                 S240418|0002AO-GEN
          Stiftung Universitaet Hildesheim                          DCE3433
          C:\Program Files (x86)\GAMS\47\gamslice.txt
          License Admin: Julia Rieck, rieck@bwl.uni-hildesheim.de          
          Course license for use within the course and related course work
          The evaluation period of the license will expire on Oct 15, 2024
Processor information: 1 socket(s), 6 core(s), and 12 thread(s) available
GAMS 47.4.0   Copyright (C) 1987-2024 GAMS Development. All rights reserved
--- Starting compilation
--- sourceFile.gms(9) 2 Mb
--- call gdxxrw aerzte.xlsx output=aerzte.gdx par=pData rng=Sheet1!A1

GDXXRW           47.4.0 838fd78c Jul 30, 2024          WEI x86 64bit/MS Window
Input file : C:\projects\itStud9Lp2024\gamsWorkSpace\aerzte.xlsx
Output file: C:\projects\itStud9Lp2024\gamsWorkSpace\aerzte.gdx
Total time = 734 Ms
--- sourceFile.gms(14) 2 Mb
--- GDXin=C:\projects\itStud9Lp2024\gamsWorkSpace\aerzte.gdx
--- GDX File ($gdxIn) C:\projects\itStud9Lp2024\gamsWorkSpace\aerzte.gdx
--- sourceFile.gms(794) 3 Mb
--- Starting execution: elapsed 0:00:00.818
--- sourceFile.gms(721) 4 Mb
--- Generating MIP model optModel
--- sourceFile.gms(723) 31 Mb
---   37,810 rows  77,156 columns  391,709 non-zeroes
---   77,115 discrete-columns
--- Range statistics (absolute non-zero finite values)
--- RHS       [min, max] : [ 1.000E+00, 3.296E+04] - Zero values observed as well
--- Bound     [min, max] : [ 1.000E+00, 1.000E+00] - Zero values observed as well
--- Matrix    [min, max] : [ 4.000E-01, 8.000E+00]
--- Executing CPLEX (Solvelink=2): elapsed 0:00:01.599

IBM ILOG CPLEX   47.4.0 838fd78c Jul 30, 2024          WEI x86 64bit/MS Window

--- GAMS/CPLEX Link licensed for continuous and discrete problems.
--- GMO setup time: 0.00s
--- Space for names approximately 3.42 Mb
--- Use option 'names no' to turn use of names off
--- GMO memory 31.31 Mb (peak 31.90 Mb)
--- Dictionary memory 0.00 Mb
--- Cplex 22.1.1.0 link memory 1.90 Mb (peak 10.70 Mb)
--- Starting Cplex

Version identifier: 22.1.1.0 | 2022-11-27 | 9160aff4d
CPXPARAM_Advance                                 0
CPXPARAM_MIP_Display                             4
CPXPARAM_MIP_Pool_Capacity                       0
CPXPARAM_MIP_Tolerances_AbsMIPGap                0
CPXPARAM_MIP_Tolerances_MIPGap                   0.01
Generic callback                                 0x50
Tried aggregator 2 times.
MIP Presolve eliminated 26949 rows and 54022 columns.
MIP Presolve modified 34976 coefficients.
Aggregator did 414 substitutions.
Reduced MIP has 10326 rows, 22712 columns, and 198641 nonzeros.
Reduced MIP has 22590 binaries, 122 generals, 0 SOSs, and 0 indicators.
Presolve time = 0.28 sec. (332.30 ticks)
Found incumbent of value 7069.660000 after 0.58 sec. (650.56 ticks)
Probing fixed 533 vars, tightened 0 bounds.
Probing time = 0.09 sec. (31.35 ticks)
Tried aggregator 2 times.
Detecting symmetries...
MIP Presolve eliminated 2993 rows and 1142 columns.
Aggregator did 5 substitutions.
Reduced MIP has 7328 rows, 21565 columns, and 179015 nonzeros.
Reduced MIP has 21443 binaries, 122 generals, 0 SOSs, and 0 indicators.
Presolve time = 0.22 sec. (270.61 ticks)
Probing time = 0.08 sec. (21.19 ticks)
Clique table members: 105295.
MIP emphasis: balance optimality and feasibility.
MIP search method: dynamic search.
Parallel mode: deterministic, using up to 12 threads.
Parallel mode: deterministic, using up to 2 threads for parallel tasks at root LP.
Parallel mode: deterministic, using up to 10 threads for concurrent optimization:
 * Starting dual Simplex on 1 thread...
 * Starting Barrier on 8 threads...
 * Starting primal Simplex on 1 thread...
Tried aggregator 1 time.
LP Presolve eliminated 15 rows and 30 columns.
Aggregator did 5 substitutions.
Reduced LP has 7308 rows, 21530 columns, and 178960 nonzeros.
Presolve time = 0.02 sec. (22.31 ticks)
Initializing dual steep norms . . .

Iteration log . . .
Iteration:     1   Dual objective     =           229.610000
Iteration:   374   Dual objective     =           271.210000
Perturbation started.
Iteration:   404   Dual objective     =           271.210000
Iteration:   737   Dual objective     =           319.464639
Iteration:  1118   Dual objective     =           328.082882
Iteration:  1483   Dual objective     =           328.643527
Iteration:  1855   Dual objective     =           369.843555
Iteration:  2244   Dual objective     =           391.976928
Iteration:  2574   Dual objective     =           406.293620
Iteration:  2919   Dual objective     =           419.926994
Iteration:  3224   Dual objective     =           431.493692
Iteration:  3401   Dual objective     =           434.293860
Iteration:  3563   Dual objective     =           434.294166
Iteration:  3739   Dual objective     =           443.144432
Iteration:  3888   Dual objective     =           515.669402
Iteration:  4096   Dual objective     =           539.610290
Iteration:  4277   Dual objective     =           544.200402
Iteration:  4480   Dual objective     =           561.770345
Iteration:  4648   Dual objective     =           575.450439
Iteration:  4841   Dual objective     =           608.990485
Iteration:  5076   Dual objective     =           643.990545
Iteration:  5330   Dual objective     =           710.750648
Iteration:  5593   Dual objective     =           750.090684
Iteration:  5779   Dual objective     =           761.141132
Iteration:  6014   Dual objective     =           800.935462
Iteration:  6244   Dual objective     =           823.397980
Iteration:  6465   Dual objective     =           844.290511
Iteration:  6762   Dual objective     =           921.610619
Iteration:  6973   Dual objective     =           930.030680
Iteration:  7169   Dual objective     =           941.325523
Iteration:  7388   Dual objective     =           962.670478
Iteration:  7590   Dual objective     =           982.590663
Iteration:  7789   Dual objective     =           992.390673
Iteration:  8010   Dual objective     =          1007.410655
Iteration:  8218   Dual objective     =          1018.785688
Iteration:  8406   Dual objective     =          1027.944043
Iteration:  8579   Dual objective     =          1047.227414
Iteration:  8778   Dual objective     =          1082.260776
Iteration:  8987   Dual objective     =          1100.798160
Iteration:  9167   Dual objective     =          1106.992987
Iteration:  9335   Dual objective     =          1122.866967
Iteration:  9534   Dual objective     =          1130.720703
Iteration:  9731   Dual objective     =          1141.835974
Iteration:  9935   Dual objective     =          1155.388625
Iteration: 10136   Dual objective     =          1169.263804
Iteration: 10352   Dual objective     =          1182.898143
Iteration: 10542   Dual objective     =          1191.848209
Iteration: 10751   Dual objective     =          1197.435767
Iteration: 10936   Dual objective     =          1205.673249
Iteration: 11142   Dual objective     =          1212.873253
Iteration: 11301   Dual objective     =          1219.398264
Iteration: 11464   Dual objective     =          1233.498270
Iteration: 11623   Dual objective     =          1245.585788
Iteration: 11806   Dual objective     =          1248.248325
Iteration: 11955   Dual objective     =          1262.748299
Iteration: 12108   Dual objective     =          1262.748321
Iteration: 12263   Dual objective     =          1266.623347
Iteration: 12431   Dual objective     =          1272.285857
Iteration: 12578   Dual objective     =          1272.285881
Iteration: 12758   Dual objective     =          1287.060885
Iteration: 12909   Dual objective     =          1287.735888
Iteration: 13056   Dual objective     =          1287.735907
Iteration: 13200   Dual objective     =          1289.335919
Iteration: 13345   Dual objective     =          1294.498415
Iteration: 13503   Dual objective     =          1297.998411
Iteration: 13673   Dual objective     =          1300.810921
Iteration: 13822   Dual objective     =          1301.298435
Iteration: 13963   Dual objective     =          1314.273365
Iteration: 14128   Dual objective     =          1319.935876
Iteration: 14298   Dual objective     =          1322.735883
Removing perturbation.

Barrier solved model.

Root relaxation solution time = 2.89 sec. (2198.46 ticks)

        Nodes                                         Cuts/
   Node  Left     Objective  IInf  Best Integer    Best Bound    ItCnt     Gap

*     0+    0                         7069.6600      229.6100            96.75%
Found incumbent of value 7069.660000 after 3.94 sec. (3234.88 ticks)
      0     0     1350.1700  2703     7069.6600     1350.1700       20   80.90%
*     0+    0                         1435.4600     1350.1700             5.94%
Found incumbent of value 1435.460000 after 11.00 sec. (12133.95 ticks)
      0     0     1351.0383  1786     1435.4600      Cuts: 64     7583    5.88%
      0     0     1351.9550  1951     1435.4600     Cuts: 161    16255    5.82%
      0     0     1351.9787  1781     1435.4600     Cuts: 123    28893    5.82%
*     0+    0                         1387.1600     1351.9787             2.54%
Found incumbent of value 1387.160000 after 22.30 sec. (27338.89 ticks)
*     0+    0                         1386.7100     1351.9787             2.50%
Found incumbent of value 1386.710000 after 22.61 sec. (27583.52 ticks)
      0     0  -1.00000e+75     0     1386.7100     1351.9787    28893    2.50%
      0     0     1353.6850  2027     1386.7100     Cuts: 126    35664    2.38%
      0     0     1354.7932  2066     1386.7100      Cuts: 93    42146    2.30%
      0     0     1355.1650  1997     1386.7100      Cuts: 92    47763    2.27%
      0     0     1355.8925  2042     1386.7100     Cuts: 111    53053    2.22%
      0     0     1357.1142  1950     1386.7100     Cuts: 109    57829    2.13%
      0     0     1358.6475  1866     1386.7100      Cuts: 95    65579    2.02%
      0     0     1359.9317  1837     1386.7100      Cuts: 90    71467    1.93%
      0     0     1360.3317  1712     1386.7100      Cuts: 70    78265    1.90%
      0     0     1360.3429  1815     1386.7100      Cuts: 47    83177    1.90%
      0     0     1360.3767  1467     1386.7100      Cuts: 15    88294    1.90%
      0     0     1360.3767  1450     1386.7100      Cuts: 33    93554    1.90%
      0     0     1360.3767  1477     1386.7100      Cuts: 39    98950    1.90%
Heuristic still looking.
*     0+    0                         1380.6100     1360.3767             1.47%
Found incumbent of value 1380.610000 after 80.47 sec. (98068.58 ticks)
*     0+    0                         1375.9600     1360.3767             1.13%
Found incumbent of value 1375.960000 after 83.05 sec. (99608.35 ticks)
*     0+    0                         1375.4600     1360.3767             1.10%
Found incumbent of value 1375.460000 after 85.94 sec. (101289.02 ticks)
      0     0  -1.00000e+75     0     1375.4600     1360.3767    98950    1.10%
      0     2     1360.3767  1477     1375.4600     1360.3767    98950    1.10%
Elapsed time = 86.24 sec. (101479.56 ticks, tree = 0.02 MB)
      1     3     1360.3767  1437     1375.4600     1360.3767   112359    1.10%
      2     4     1360.3767  1457     1375.4600     1360.3767   120085    1.10%
*     3+    2                         1372.5600     1360.3767             0.89%
Found incumbent of value 1372.560000 after 97.28 sec. (114577.88 ticks)
                                                  Impl Bds: 1                  
                                                      Cuts: 2                  
      3     5     1360.3767  1398     1372.5600     1360.3767   124692    0.89%
      4     5     1360.3767  1574     1372.5600     1360.3767   127677    0.89%

GUB cover cuts applied:  12
Clique cuts applied:  82
Implied bound cuts applied:  4
Mixed integer rounding cuts applied:  2
Zero-half cuts applied:  242
Lift and project cuts applied:  3
Gomory fractional cuts applied:  17

Root node processing (before b&c):
  Real time             =   86.00 sec. (101334.55 ticks)
Parallel b&c, 12 threads:
  Real time             =   19.80 sec. (22756.37 ticks)
  Sync time (average)   =    8.93 sec.
  Wait time (average)   =    0.00 sec.
                          ------------
Total (root+branch&cut) =  105.80 sec. (124090.91 ticks)

--- MIP status (102): integer optimal, tolerance.
--- Cplex Time: 105.80sec (det. 124091.14 ticks)

--- Returning a primal only solution to GAMS (marginals all set to NA).
--- Fixing integer variables and solving final LP...

Version identifier: 22.1.1.0 | 2022-11-27 | 9160aff4d
CPXPARAM_Advance                                 2
CPXPARAM_MIP_Display                             4
CPXPARAM_MIP_Pool_Capacity                       0
CPXPARAM_MIP_Tolerances_AbsMIPGap                0
CPXPARAM_MIP_Tolerances_MIPGap                   0.01
Parallel mode: deterministic, using up to 12 threads for concurrent optimization:
 * Starting dual Simplex on 1 thread...
 * Starting Barrier on 10 threads...
 * Starting primal Simplex on 1 thread...
Tried aggregator 1 time.
LP Presolve eliminated 37809 rows and 77156 columns.
All rows and columns eliminated.
Presolve time = 0.03 sec. (35.91 ticks)

Dual simplex solved model.


--- Fixed MIP status (1): optimal.
--- Cplex Time: 0.08sec (det. 65.34 ticks)


Solution satisfies tolerances
MIP Solution:         1372.560000    (151929 iterations, 5 nodes)
Final Solve:          1372.560000    (0 iterations)

Best possible:        1360.376667
Absolute gap:           12.183333
Relative gap:            0.008876

--- Reading solution for model optModel
--- sourceFile.gms(723) 31 Mb  106 secs
--- Executing after solve: elapsed 0:01:48.078
--- sourceFile.gms(794) 34 Mb
--- Putfile outputFileSimple C:\projects\itStud9Lp2024\gamsWorkSpace\output_s.txt
--- Putfile outputFileTable C:\projects\itStud9Lp2024\gamsWorkSpace\output_t.txt
*** Status: Normal completion
--- Job sourceFile.gms Stop 08/15/24 19:14:08 elapsed 0:01:48.101
